\ENCODING=ISO-8859-1
\Problem name: chvatal

Minimize
 obj: x1 + x2 + x3 + x4 + x5 + x6 + x7 + 2 x8 + 2 x9
Subject To
 c1: - x10 - x11 - x12  = -1
 c2: x1 + x6 + x10  = 4
 c3: x2 + x4 + x7 + x11  = 1
 c4: x3 + x5 + x12  = 1
 c5: - x6 - x7 - x8 + x9  = -2
 c6: - x4 - x5 + x8  = -2
 c7: - x1 - x2 - x3 - x9  = -1
 c8: 2 x8 + 5 x9  = 2
 c9: x1 + x3 + x6  = 3
Bounds
 0 <= x1 <= 50
 0 <= x2 <= 50
 0 <= x3 <= 50
 0 <= x4 <= 50
 0 <= x5 <= 50
 0 <= x6 <= 50
 0 <= x7 <= 50
 0 <= x8 <= 50
 0 <= x9 <= 50
 0 <= x10 <= 50
 0 <= x11 <= 50
 0 <= x12 <= 50
End
